3   6   1   
6   1   3   1   1   1   3   1   2   6   1   4   7   1   6   3   1   5   6   
6   1   2   8   1   3   5   1   5   10  1   6   10  1   1   10  1   4   4   
6   1   3   5   1   4   4   1   6   8   1   1   9   1   2   1   1   5   7    